949.02,59.67,71.51
991.82,57.09,68.42
966.12,58.61,70.24
1080.61,52.4,62.8
968.76,58.45,70.05
940.54,60.21,72.16
951.96,59.48,71.29
1105.47,51.22,61.39
1000.03,56.62,67.86
1066.27,53.11,63.65
975.5,58.05,69.57
1156.0,48.98,58.71
1016.23,55.72,66.78
1142.67,49.56,59.39
970.88,58.32,69.9
1024.58,55.27,66.24
953.98,59.36,71.14
973.45,58.17,69.72
1097.04,51.62,61.86
981.08,57.72,69.17
